# Synthetic RCP for GISMO 
1	1.0	1.0	-44.1	-104.9
2	1.0	1.0	-51.9	-94.5
3	1.0	1.0	-60.0	-84.1
4	1.0	1.0	-68.2	-73.8
5	1.0	1.0	-76.6	-63.5
6	1.0	1.0	-85.3	-53.2
7	1.0	1.0	-94.1	-42.9
8	1.0	1.0	-103.2	-32.7
9	1.0	1.0	-34.4	-95.0
10	1.0	1.0	-42.2	-84.6
11	1.0	1.0	-50.2	-74.3
12	1.0	1.0	-58.5	-63.9
13	1.0	1.0	-66.9	-53.6
14	1.0	1.0	-75.6	-43.3
15	1.0	1.0	-84.4	-33.1
16	1.0	1.0	-93.5	-22.8
17	1.0	1.0	-24.6	-85.3
18	1.0	1.0	-32.4	-74.9
19	1.0	1.0	-40.4	-64.6
20	1.0	1.0	-48.6	-54.2
21	1.0	1.0	-57.1	-43.9
22	1.0	1.0	-65.7	-33.6
23	1.0	1.0	-74.6	-23.3
24	1.0	1.0	-83.6	-13.1
25	1.0	1.0	-14.5	-75.7
26	1.0	1.0	-22.4	-65.3
27	1.0	1.0	-30.4	-55.0
28	1.0	1.0	-38.6	-44.6
29	1.0	1.0	-47.0	-34.3
30	1.0	1.0	-55.7	-24.0
31	1.0	1.0	-64.6	-13.7
32	1.0	1.0	-73.6	-3.5
33	1.0	1.0	-4.4	-66.3
34	1.0	1.0	-12.2	-55.9
35	1.0	1.0	-20.2	-45.5
36	1.0	1.0	-28.4	-35.2
37	1.0	1.0	-36.9	-24.8
38	1.0	1.0	-45.5	-14.6
39	1.0	1.0	-54.4	-4.3
40	1.0	1.0	-63.5	5.9
41	1.0	1.0	5.9	-56.9
42	1.0	1.0	-1.9	-46.6
43	1.0	1.0	-9.9	-36.2
44	1.0	1.0	-18.1	-25.8
45	1.0	1.0	-26.6	-15.5
46	1.0	1.0	-35.2	-5.2
47	1.0	1.0	-44.1	5.0
48	1.0	1.0	-53.2	15.3
49	1.0	1.0	16.4	-47.8
50	1.0	1.0	8.6	-37.4
51	1.0	1.0	0.5	-27.0
52	1.0	1.0	-7.7	-16.7
53	1.0	1.0	-16.1	-6.3
54	1.0	1.0	-24.8	4.0
55	1.0	1.0	-33.6	14.2
56	1.0	1.0	-42.7	24.5
57	1.0	1.0	27.0	-38.7
58	1.0	1.0	19.2	-28.3
59	1.0	1.0	11.1	-17.9
60	1.0	1.0	2.9	-7.6
61	1.0	1.0	-5.5	2.7
62	1.0	1.0	-14.2	13.0
63	1.0	1.0	-23.0	23.3
64	1.0	1.0	-32.1	33.5
65	1.0	1.0	37.7	-29.8
66	1.0	1.0	29.9	-19.4
67	1.0	1.0	21.9	-9.0
68	1.0	1.0	13.7	1.3
69	1.0	1.0	5.2	11.6
70	1.0	1.0	-3.4	21.9
71	1.0	1.0	-12.3	32.2
72	1.0	1.0	-21.3	42.4
73	1.0	1.0	48.6	-21.0
74	1.0	1.0	40.8	-10.6
75	1.0	1.0	32.8	-0.2
76	1.0	1.0	24.6	10.1
77	1.0	1.0	16.1	20.4
78	1.0	1.0	7.5	30.7
79	1.0	1.0	-1.4	41.0
80	1.0	1.0	-10.5	51.2
81	1.0	1.0	59.7	-12.3
82	1.0	1.0	51.9	-2.0
83	1.0	1.0	43.8	8.4
84	1.0	1.0	35.6	18.8
85	1.0	1.0	27.2	29.1
86	1.0	1.0	18.5	39.4
87	1.0	1.0	9.7	49.6
88	1.0	1.0	0.6	59.9
89	1.0	1.0	70.9	-3.8
90	1.0	1.0	63.1	6.6
91	1.0	1.0	55.0	16.9
92	1.0	1.0	46.8	27.3
93	1.0	1.0	38.4	37.6
94	1.0	1.0	29.7	47.9
95	1.0	1.0	20.9	58.2
96	1.0	1.0	11.8	68.4
97	1.0	1.0	82.2	4.6
98	1.0	1.0	74.4	14.9
99	1.0	1.0	66.4	25.3
100	1.0	1.0	58.1	35.7
101	1.0	1.0	49.7	46.0
102	1.0	1.0	41.1	56.3
103	1.0	1.0	32.2	66.5
104	1.0	1.0	23.1	76.8
105	1.0	1.0	93.7	12.8
106	1.0	1.0	85.9	23.2
107	1.0	1.0	77.9	33.6
108	1.0	1.0	69.6	43.9
109	1.0	1.0	61.2	54.2
110	1.0	1.0	52.5	64.5
111	1.0	1.0	43.7	74.8
112	1.0	1.0	34.6	85.0
113	1.0	1.0	105.3	20.9
114	1.0	1.0	97.5	31.3
115	1.0	1.0	89.5	41.7
116	1.0	1.0	81.3	52.0
117	1.0	1.0	72.8	62.3
118	1.0	1.0	64.2	72.6
119	1.0	1.0	55.3	82.9
120	1.0	1.0	46.3	93.1
121	1.0	1.0	117.1	28.9
122	1.0	1.0	109.3	39.3
123	1.0	1.0	101.3	49.7
124	1.0	1.0	93.1	60.0
125	1.0	1.0	84.6	70.3
126	1.0	1.0	76.0	80.6
127	1.0	1.0	67.1	90.9
128	1.0	1.0	58.0	101.1
